networks/zoo_32_42/zoo_32_42-lower.sol
<?xml version = "1.0" encoding="UTF-8" standalone="yes"?>
<CPLEXSolution version="1.2">
 <header
   problemName="networks/zoo_32_42/zoo_32_42-lower.lp"
   solutionName="incumbent"
   solutionIndex="-1"
   objectiveValue="14"
   solutionTypeValue="3"
   solutionTypeString="primal"
   solutionStatusValue="101"
   solutionStatusString="integer optimal solution"
   solutionMethodString="mip"
   primalFeasible="1"
   dualFeasible="1"
   MIPNodes="0"
   MIPIterations="46"
   writeLevel="3"/>
 <quality
   epInt="1.0000000000000001e-05"
   epRHS="9.9999999999999995e-07"
   maxIntInfeas="0"
   maxPrimalInfeas="0"
   maxX="1"
   maxSlack="1"/>
 <variables>
  <variable name="Y(1,15)" index="13" value="1"/>
  <variable name="Y(3,14)" index="60" value="1"/>
  <variable name="Y(7,15)" index="157" value="1"/>
  <variable name="Y(8,10)" index="176" value="1"/>
  <variable name="Y(9,8)" index="198" value="1"/>
  <variable name="Y(11,2)" index="241" value="1"/>
  <variable name="Y(14,7)" index="317" value="1"/>
  <variable name="Y(15,9)" index="343" value="1"/>
  <variable name="Y(17,13)" index="395" value="1"/>
  <variable name="Y(22,5)" index="508" value="1"/>
  <variable name="Y(25,11)" index="585" value="1"/>
  <variable name="Y(30,13)" index="707" value="1"/>
  <variable name="Y(33,4)" index="771" value="1"/>
  <variable name="Y(38,14)" index="900" value="1"/>
  <variable name="X(1,15,1)" index="1008" value="1"/>
  <variable name="X(2,14,3)" index="1052" value="1"/>
  <variable name="X(2,19,11)" index="1102" value="1"/>
  <variable name="X(3,14,7)" index="1140" value="1"/>
  <variable name="X(4,21,33)" index="1208" value="1"/>
  <variable name="X(5,22,22)" index="1239" value="1"/>
  <variable name="X(7,12,8)" index="1267" value="1"/>
  <variable name="X(7,24,14)" index="1315" value="1"/>
  <variable name="X(8,14,9)" index="1352" value="1"/>
  <variable name="X(9,26,15)" index="1400" value="1"/>
  <variable name="X(10,5,22)" index="1449" value="1"/>
  <variable name="X(10,14,11)" index="1480" value="1"/>
  <variable name="X(10,27,8)" index="1519" value="1"/>
  <variable name="X(11,28,25)" index="1578" value="1"/>
  <variable name="X(12,7,14)" index="1609" value="1"/>
  <variable name="X(12,11,25)" index="1662" value="1"/>
  <variable name="X(12,13,17)" index="1696" value="1"/>
  <variable name="X(12,14,8)" index="1729" value="1"/>
  <variable name="X(13,12,30)" index="1793" value="1"/>
  <variable name="X(13,30,17)" index="1822" value="1"/>
  <variable name="X(14,2,11)" index="1858" value="1"/>
  <variable name="X(14,9,15)" index="1904" value="1"/>
  <variable name="X(14,10,8)" index="1939" value="1"/>
  <variable name="X(14,11,38)" index="2011" value="1"/>
  <variable name="X(14,12,14)" index="2029" value="1"/>
  <variable name="X(14,15,7)" index="2064" value="1"/>
  <variable name="X(14,31,3)" index="2102" value="1"/>
  <variable name="X(15,4,33)" index="2174" value="1"/>
  <variable name="X(15,14,1)" index="2184" value="1"/>
  <variable name="X(15,32,7)" index="2232" value="1"/>
 </variables>
</CPLEXSolution>
